p cnf 273 1074
2 44 34 0
25 1 -30 0
-37 -32 -8 0
-37 -31 -25 0
-17 33 13 0
50 -35 -30 0
35 11 -47 0
-40 13 -35 0
40 -30 49 0
45 23 -48 0
18 7 -27 0
-46 6 -11 0
33 34 45 0
-44 -15 -32 0
41 -30 -37 0
-41 -6 -2 0
42 5 -50 0
34 -46 26 0
4 40 33 0
21 40 -47 0
-39 9 28 0
-41 -50 49 0
-11 -6 37 0
-47 -12 -45 0
-34 13 -18 0
-21 -10 -34 0
-3 33 20 0
-1 20 10 0
36 -30 34 0
11 20 15 0
11 50 -43 0
16 19 24 0
-35 11 29 0
-45 -42 -30 0
15 -5 48 0
14 -22 10 0
-37 19 40 0
-25 -12 -40 0
-40 -5 -11 0
-14 -36 10 0
25 -14 45 0
15 -26 7 0
-32 -1 -34 0
-41 24 -20 0
11 41 -25 0
-48 19 -40 0
-23 -45 27 0
8 -32 15 0
35 -22 8 0
37 -11 -10 0
-11 41 -49 0
2 -20 -11 0
-10 38 -46 0
-39 -41 -43 0
33 -45 -30 0
-41 12 -1 0
8 47 -32 0
17 -5 -29 0
-35 -20 49 0
41 2 25 0
42 -11 15 0
22 10 -45 0
33 -4 17 0
-47 16 -36 0
18 20 30 0
-5 11 -8 0
34 -22 38 0
39 18 -47 0
40 -43 -20 0
34 -4 -11 0
-38 8 5 0
-19 -37 -24 0
34 -14 -8 0
-45 25 44 0
-1 -48 -2 0
21 16 -7 0
4 10 -23 0
-18 6 7 0
35 17 43 0
47 -14 -9 0
-13 27 47 0
46 50 1 0
25 -31 7 0
-21 -42 -30 0
-10 4 -25 0
6 40 -17 0
35 -34 -18 0
6 22 -40 0
-40 -31 -48 0
-3 -6 43 0
4 16 46 0
-16 11 -23 0
37 31 6 0
16 -5 -44 0
-10 23 -25 0
29 44 -28 0
21 -7 30 0
10 8 35 0
-21 47 -9 0
-50 -32 -33 0
-23 34 -14 0
-16 -5 -35 0
33 -31 32 0
-22 15 8 0
-31 -20 -41 0
19 5 -6 0
12 9 -8 0
-29 21 7 0
-8 -39 47 0
-20 -10 31 0
27 6 -21 0
1 -36 22 0
-26 48 -30 0
-21 3 49 0
-20 31 40 0
-14 44 -49 0
18 -48 -29 0
-30 36 -38 0
-48 41 24 0
-27 44 -38 0
-32 -20 -35 0
-34 -18 -28 0
22 -2 24 0
-14 11 35 0
-45 -29 7 0
-32 -29 -8 0
25 -30 -35 0
-46 7 20 0
-2 -21 50 0
27 26 16 0
28 -45 50 0
-3 30 -32 0
-12 -33 34 0
42 -24 10 0
-23 42 10 0
32 50 -22 0
-27 -35 -19 0
-8 -30 50 0
-38 -21 26 0
9 -13 22 0
-40 29 -37 0
-37 2 -11 0
2 28 25 0
1 40 28 0
23 30 -6 0
-6 -35 -18 0
-49 -46 -15 0
-49 -29 -22 0
33 45 -19 0
38 1 42 0
2 4 51 0
-2 4 -51 0
2 -4 -51 0
-2 -4 51 0
-5 -7 52 0
5 -7 -52 0
-5 7 -52 0
5 7 52 0
12 -14 53 0
-12 -14 -53 0
12 14 -53 0
-12 14 53 0
16 17 54 0
-16 17 -54 0
16 -17 -54 0
-16 -17 54 0
18 22 55 0
-18 22 -55 0
18 -22 -55 0
-18 -22 55 0
23 -24 56 0
-23 -24 -56 0
23 24 -56 0
-23 24 56 0
-28 -29 57 0
28 -29 -57 0
-28 29 -57 0
28 29 57 0
-30 -33 58 0
30 -33 -58 0
-30 33 -58 0
30 33 58 0
-36 -37 59 0
36 -37 -59 0
-36 37 -59 0
36 37 59 0
-39 41 60 0
39 41 -60 0
-39 -41 -60 0
39 -41 60 0
43 44 61 0
-43 44 -61 0
43 -44 -61 0
-43 -44 61 0
46 -48 62 0
-46 -48 -62 0
46 48 -62 0
-46 48 62 0
50 -51 63 0
-50 -51 -63 0
50 51 -63 0
-50 51 63 0
52 -53 64 0
-52 -53 -64 0
52 53 -64 0
-52 53 64 0
54 -55 65 0
-54 -55 -65 0
54 55 -65 0
-54 55 65 0
56 -57 66 0
-56 -57 -66 0
56 57 -66 0
-56 57 66 0
58 -59 67 0
-58 -59 -67 0
58 59 -67 0
-58 59 67 0
60 -61 68 0
-60 -61 -68 0
60 61 -68 0
-60 61 68 0
62 -63 69 0
-62 -63 -69 0
62 63 -69 0
-62 63 69 0
64 -65 70 0
-64 -65 -70 0
64 65 -70 0
-64 65 70 0
66 -67 71 0
-66 -67 -71 0
66 67 -71 0
-66 67 71 0
68 -69 72 0
-68 -69 -72 0
68 69 -72 0
-68 69 72 0
70 -71 73 0
-70 -71 -73 0
70 71 -73 0
-70 71 73 0
72 73 0
-72 -73 0
-3 6 74 0
3 6 -74 0
-3 -6 -74 0
3 -6 74 0
8 12 75 0
-8 12 -75 0
8 -12 -75 0
-8 -12 75 0
15 17 76 0
-15 17 -76 0
15 -17 -76 0
-15 -17 76 0
22 -23 77 0
-22 -23 -77 0
22 23 -77 0
-22 23 77 0
-24 -25 78 0
24 -25 -78 0
-24 25 -78 0
24 25 78 0
-28 -29 79 0
28 -29 -79 0
-28 29 -79 0
28 29 79 0
-30 31 80 0
30 31 -80 0
-30 -31 -80 0
30 -31 80 0
-34 36 81 0
34 36 -81 0
-34 -36 -81 0
34 -36 81 0
-38 -40 82 0
38 -40 -82 0
-38 40 -82 0
38 40 82 0
-42 -45 83 0
42 -45 -83 0
-42 45 -83 0
42 45 83 0
-46 -47 84 0
46 -47 -84 0
-46 47 -84 0
46 47 84 0
73 -74 85 0
-73 -74 -85 0
73 74 -85 0
-73 74 85 0
75 -76 86 0
-75 -76 -86 0
75 76 -86 0
-75 76 86 0
77 -78 87 0
-77 -78 -87 0
77 78 -87 0
-77 78 87 0
79 -80 88 0
-79 -80 -88 0
79 80 -88 0
-79 80 88 0
81 -82 89 0
-81 -82 -89 0
81 82 -89 0
-81 82 89 0
83 -84 90 0
-83 -84 -90 0
83 84 -90 0
-83 84 90 0
85 -86 91 0
-85 -86 -91 0
85 86 -91 0
-85 86 91 0
87 -88 92 0
-87 -88 -92 0
87 88 -92 0
-87 88 92 0
89 -90 93 0
-89 -90 -93 0
89 90 -93 0
-89 90 93 0
-91 -92 93 0
91 -92 -93 0
-91 92 -93 0
91 92 93 0
-7 10 94 0
7 10 -94 0
-7 -10 -94 0
7 -10 94 0
11 -13 95 0
-11 -13 -95 0
11 13 -95 0
-11 13 95 0
-14 17 96 0
14 17 -96 0
-14 -17 -96 0
14 -17 96 0
-18 20 97 0
18 20 -97 0
-18 -20 -97 0
18 -20 97 0
21 24 98 0
-21 24 -98 0
21 -24 -98 0
-21 -24 98 0
-26 27 99 0
26 27 -99 0
-26 -27 -99 0
26 -27 99 0
-28 31 100 0
28 31 -100 0
-28 -31 -100 0
28 -31 100 0
-33 34 101 0
33 34 -101 0
-33 -34 -101 0
33 -34 101 0
35 -36 102 0
-35 -36 -102 0
35 36 -102 0
-35 36 102 0
-39 42 103 0
39 42 -103 0
-39 -42 -103 0
39 -42 103 0
43 46 104 0
-43 46 -104 0
43 -46 -104 0
-43 -46 104 0
-47 -48 105 0
47 -48 -105 0
-47 48 -105 0
47 48 105 0
49 -50 106 0
-49 -50 -106 0
49 50 -106 0
-49 50 106 0
94 -95 107 0
-94 -95 -107 0
94 95 -107 0
-94 95 107 0
96 -97 108 0
-96 -97 -108 0
96 97 -108 0
-96 97 108 0
98 -99 109 0
-98 -99 -109 0
98 99 -109 0
-98 99 109 0
100 -101 110 0
-100 -101 -110 0
100 101 -110 0
-100 101 110 0
102 -103 111 0
-102 -103 -111 0
102 103 -111 0
-102 103 111 0
104 -105 112 0
-104 -105 -112 0
104 105 -112 0
-104 105 112 0
106 -107 113 0
-106 -107 -113 0
106 107 -113 0
-106 107 113 0
108 -109 114 0
-108 -109 -114 0
108 109 -114 0
-108 109 114 0
110 -111 115 0
-110 -111 -115 0
110 111 -115 0
-110 111 115 0
112 -113 116 0
-112 -113 -116 0
112 113 -116 0
-112 113 116 0
114 -115 117 0
-114 -115 -117 0
114 115 -117 0
-114 115 117 0
116 117 0
-116 -117 0
2 3 118 0
-2 3 -118 0
2 -3 -118 0
-2 -3 118 0
6 8 119 0
-6 8 -119 0
6 -8 -119 0
-6 -8 119 0
9 11 120 0
-9 11 -120 0
9 -11 -120 0
-9 -11 120 0
12 -13 121 0
-12 -13 -121 0
12 13 -121 0
-12 13 121 0
-14 16 122 0
14 16 -122 0
-14 -16 -122 0
14 -16 122 0
19 -24 123 0
-19 -24 -123 0
19 24 -123 0
-19 24 123 0
26 -27 124 0
-26 -27 -124 0
26 27 -124 0
-26 27 124 0
-29 -37 125 0
29 -37 -125 0
-29 37 -125 0
29 37 125 0
41 -42 126 0
-41 -42 -126 0
41 42 -126 0
-41 42 126 0
-43 44 127 0
43 44 -127 0
-43 -44 -127 0
43 -44 127 0
46 -47 128 0
-46 -47 -128 0
46 47 -128 0
-46 47 128 0
49 50 129 0
-49 50 -129 0
49 -50 -129 0
-49 -50 129 0
118 -119 130 0
-118 -119 -130 0
118 119 -130 0
-118 119 130 0
120 -121 131 0
-120 -121 -131 0
120 121 -131 0
-120 121 131 0
122 -123 132 0
-122 -123 -132 0
122 123 -132 0
-122 123 132 0
124 -125 133 0
-124 -125 -133 0
124 125 -133 0
-124 125 133 0
126 -127 134 0
-126 -127 -134 0
126 127 -134 0
-126 127 134 0
128 -129 135 0
-128 -129 -135 0
128 129 -135 0
-128 129 135 0
130 -131 136 0
-130 -131 -136 0
130 131 -136 0
-130 131 136 0
132 -133 137 0
-132 -133 -137 0
132 133 -137 0
-132 133 137 0
134 -135 138 0
-134 -135 -138 0
134 135 -138 0
-134 135 138 0
-136 -137 138 0
136 -137 -138 0
-136 137 -138 0
136 137 138 0
1 4 139 0
-1 4 -139 0
1 -4 -139 0
-1 -4 139 0
5 -6 140 0
-5 -6 -140 0
5 6 -140 0
-5 6 140 0
7 -8 141 0
-7 -8 -141 0
7 8 -141 0
-7 8 141 0
9 -11 142 0
-9 -11 -142 0
9 11 -142 0
-9 11 142 0
17 -20 143 0
-17 -20 -143 0
17 20 -143 0
-17 20 143 0
21 22 144 0
-21 22 -144 0
21 -22 -144 0
-21 -22 144 0
23 -25 145 0
-23 -25 -145 0
23 25 -145 0
-23 25 145 0
-27 -29 146 0
27 -29 -146 0
-27 29 -146 0
27 29 146 0
-31 32 147 0
31 32 -147 0
-31 -32 -147 0
31 -32 147 0
-34 -35 148 0
34 -35 -148 0
-34 35 -148 0
34 35 148 0
40 41 149 0
-40 41 -149 0
40 -41 -149 0
-40 -41 149 0
42 -43 150 0
-42 -43 -150 0
42 43 -150 0
-42 43 150 0
-45 -46 151 0
45 -46 -151 0
-45 46 -151 0
45 46 151 0
47 -48 152 0
-47 -48 -152 0
47 48 -152 0
-47 48 152 0
49 50 153 0
-49 50 -153 0
49 -50 -153 0
-49 -50 153 0
139 -140 154 0
-139 -140 -154 0
139 140 -154 0
-139 140 154 0
141 -142 155 0
-141 -142 -155 0
141 142 -155 0
-141 142 155 0
143 -144 156 0
-143 -144 -156 0
143 144 -156 0
-143 144 156 0
145 -146 157 0
-145 -146 -157 0
145 146 -157 0
-145 146 157 0
147 -148 158 0
-147 -148 -158 0
147 148 -158 0
-147 148 158 0
149 -150 159 0
-149 -150 -159 0
149 150 -159 0
-149 150 159 0
151 -152 160 0
-151 -152 -160 0
151 152 -160 0
-151 152 160 0
153 -154 161 0
-153 -154 -161 0
153 154 -161 0
-153 154 161 0
155 -156 162 0
-155 -156 -162 0
155 156 -162 0
-155 156 162 0
157 -158 163 0
-157 -158 -163 0
157 158 -163 0
-157 158 163 0
159 -160 164 0
-159 -160 -164 0
159 160 -164 0
-159 160 164 0
161 -162 165 0
-161 -162 -165 0
161 162 -165 0
-161 162 165 0
163 -164 166 0
-163 -164 -166 0
163 164 -166 0
-163 164 166 0
165 166 0
-165 -166 0
-1 2 167 0
1 2 -167 0
-1 -2 -167 0
1 -2 167 0
11 -13 168 0
-11 -13 -168 0
11 13 -168 0
-11 13 168 0
14 -15 169 0
-14 -15 -169 0
14 15 -169 0
-14 15 169 0
16 17 170 0
-16 17 -170 0
16 -17 -170 0
-16 -17 170 0
-19 -23 171 0
19 -23 -171 0
-19 23 -171 0
19 23 171 0
-24 26 172 0
24 26 -172 0
-24 -26 -172 0
24 -26 172 0
28 -29 173 0
-28 -29 -173 0
28 29 -173 0
-28 29 173 0
31 -33 174 0
-31 -33 -174 0
31 33 -174 0
-31 33 174 0
-34 -35 175 0
34 -35 -175 0
-34 35 -175 0
34 35 175 0
-37 38 176 0
37 38 -176 0
-37 -38 -176 0
37 -38 176 0
-40 -44 177 0
40 -44 -177 0
-40 44 -177 0
40 44 177 0
47 -50 178 0
-47 -50 -178 0
47 50 -178 0
-47 50 178 0
167 -168 179 0
-167 -168 -179 0
167 168 -179 0
-167 168 179 0
169 -170 180 0
-169 -170 -180 0
169 170 -180 0
-169 170 180 0
171 -172 181 0
-171 -172 -181 0
171 172 -181 0
-171 172 181 0
173 -174 182 0
-173 -174 -182 0
173 174 -182 0
-173 174 182 0
175 -176 183 0
-175 -176 -183 0
175 176 -183 0
-175 176 183 0
177 -178 184 0
-177 -178 -184 0
177 178 -184 0
-177 178 184 0
179 -180 185 0
-179 -180 -185 0
179 180 -185 0
-179 180 185 0
181 -182 186 0
-181 -182 -186 0
181 182 -186 0
-181 182 186 0
183 -184 187 0
-183 -184 -187 0
183 184 -187 0
-183 184 187 0
-185 -186 187 0
185 -186 -187 0
-185 186 -187 0
185 186 187 0
1 -2 188 0
-1 -2 -188 0
1 2 -188 0
-1 2 188 0
3 -7 189 0
-3 -7 -189 0
3 7 -189 0
-3 7 189 0
-9 -16 190 0
9 -16 -190 0
-9 16 -190 0
9 16 190 0
-17 -18 191 0
17 -18 -191 0
-17 18 -191 0
17 18 191 0
19 -20 192 0
-19 -20 -192 0
19 20 -192 0
-19 20 192 0
-23 24 193 0
23 24 -193 0
-23 -24 -193 0
23 -24 193 0
-25 -26 194 0
25 -26 -194 0
-25 26 -194 0
25 26 194 0
34 -37 195 0
-34 -37 -195 0
34 37 -195 0
-34 37 195 0
-42 43 196 0
42 43 -196 0
-42 -43 -196 0
42 -43 196 0
45 46 197 0
-45 46 -197 0
45 -46 -197 0
-45 -46 197 0
188 -189 198 0
-188 -189 -198 0
188 189 -198 0
-188 189 198 0
190 -191 199 0
-190 -191 -199 0
190 191 -199 0
-190 191 199 0
192 -193 200 0
-192 -193 -200 0
192 193 -200 0
-192 193 200 0
194 -195 201 0
-194 -195 -201 0
194 195 -201 0
-194 195 201 0
196 -197 202 0
-196 -197 -202 0
196 197 -202 0
-196 197 202 0
198 -199 203 0
-198 -199 -203 0
198 199 -203 0
-198 199 203 0
200 -201 204 0
-200 -201 -204 0
200 201 -204 0
-200 201 204 0
-202 -203 204 0
202 -203 -204 0
-202 203 -204 0
202 203 204 0
-1 2 205 0
1 2 -205 0
-1 -2 -205 0
1 -2 205 0
-3 -5 206 0
3 -5 -206 0
-3 5 -206 0
3 5 206 0
6 10 207 0
-6 10 -207 0
6 -10 -207 0
-6 -10 207 0
11 -12 208 0
-11 -12 -208 0
11 12 -208 0
-11 12 208 0
-14 16 209 0
14 16 -209 0
-14 -16 -209 0
14 -16 209 0
17 20 210 0
-17 20 -210 0
17 -20 -210 0
-17 -20 210 0
-23 -25 211 0
23 -25 -211 0
-23 25 -211 0
23 25 211 0
27 -28 212 0
-27 -28 -212 0
27 28 -212 0
-27 28 212 0
-32 36 213 0
32 36 -213 0
-32 -36 -213 0
32 -36 213 0
-38 -39 214 0
38 -39 -214 0
-38 39 -214 0
38 39 214 0
44 46 215 0
-44 46 -215 0
44 -46 -215 0
-44 -46 215 0
205 -206 216 0
-205 -206 -216 0
205 206 -216 0
-205 206 216 0
207 -208 217 0
-207 -208 -217 0
207 208 -217 0
-207 208 217 0
209 -210 218 0
-209 -210 -218 0
209 210 -218 0
-209 210 218 0
211 -212 219 0
-211 -212 -219 0
211 212 -219 0
-211 212 219 0
213 -214 220 0
-213 -214 -220 0
213 214 -220 0
-213 214 220 0
215 -216 221 0
-215 -216 -221 0
215 216 -221 0
-215 216 221 0
217 -218 222 0
-217 -218 -222 0
217 218 -222 0
-217 218 222 0
219 -220 223 0
-219 -220 -223 0
219 220 -223 0
-219 220 223 0
-221 -222 223 0
221 -222 -223 0
-221 222 -223 0
221 222 223 0
-2 4 224 0
2 4 -224 0
-2 -4 -224 0
2 -4 224 0
6 10 225 0
-6 10 -225 0
6 -10 -225 0
-6 -10 225 0
-12 -13 226 0
12 -13 -226 0
-12 13 -226 0
12 13 226 0
14 -16 227 0
-14 -16 -227 0
14 16 -227 0
-14 16 227 0
-18 -19 228 0
18 -19 -228 0
-18 19 -228 0
18 19 228 0
-21 -23 229 0
21 -23 -229 0
-21 23 -229 0
21 23 229 0
27 -29 230 0
-27 -29 -230 0
27 29 -230 0
-27 29 230 0
-30 33 231 0
30 33 -231 0
-30 -33 -231 0
30 -33 231 0
36 -38 232 0
-36 -38 -232 0
36 38 -232 0
-36 38 232 0
-39 -40 233 0
39 -40 -233 0
-39 40 -233 0
39 40 233 0
45 46 234 0
-45 46 -234 0
45 -46 -234 0
-45 -46 234 0
-47 49 235 0
47 49 -235 0
-47 -49 -235 0
47 -49 235 0
224 -225 236 0
-224 -225 -236 0
224 225 -236 0
-224 225 236 0
226 -227 237 0
-226 -227 -237 0
226 227 -237 0
-226 227 237 0
228 -229 238 0
-228 -229 -238 0
228 229 -238 0
-228 229 238 0
230 -231 239 0
-230 -231 -239 0
230 231 -239 0
-230 231 239 0
232 -233 240 0
-232 -233 -240 0
232 233 -240 0
-232 233 240 0
234 -235 241 0
-234 -235 -241 0
234 235 -241 0
-234 235 241 0
236 -237 242 0
-236 -237 -242 0
236 237 -242 0
-236 237 242 0
238 -239 243 0
-238 -239 -243 0
238 239 -243 0
-238 239 243 0
240 -241 244 0
-240 -241 -244 0
240 241 -244 0
-240 241 244 0
-242 -243 244 0
242 -243 -244 0
-242 243 -244 0
242 243 244 0
1 3 245 0
-1 3 -245 0
1 -3 -245 0
-1 -3 245 0
-4 -7 246 0
4 -7 -246 0
-4 7 -246 0
4 7 246 0
-8 10 247 0
8 10 -247 0
-8 -10 -247 0
8 -10 247 0
-11 12 248 0
11 12 -248 0
-11 -12 -248 0
11 -12 248 0
-19 -20 249 0
19 -20 -249 0
-19 20 -249 0
19 20 249 0
-21 -22 250 0
21 -22 -250 0
-21 22 -250 0
21 22 250 0
-24 25 251 0
24 25 -251 0
-24 -25 -251 0
24 -25 251 0
28 -29 252 0
-28 -29 -252 0
28 29 -252 0
-28 29 252 0
-30 31 253 0
30 31 -253 0
-30 -31 -253 0
30 -31 253 0
-33 34 254 0
33 34 -254 0
-33 -34 -254 0
33 -34 254 0
35 -36 255 0
-35 -36 -255 0
35 36 -255 0
-35 36 255 0
-37 38 256 0
37 38 -256 0
-37 -38 -256 0
37 -38 256 0
39 41 257 0
-39 41 -257 0
39 -41 -257 0
-39 -41 257 0
-42 45 258 0
42 45 -258 0
-42 -45 -258 0
42 -45 258 0
46 47 259 0
-46 47 -259 0
46 -47 -259 0
-46 -47 259 0
244 -245 260 0
-244 -245 -260 0
244 245 -260 0
-244 245 260 0
246 -247 261 0
-246 -247 -261 0
246 247 -261 0
-246 247 261 0
248 -249 262 0
-248 -249 -262 0
248 249 -262 0
-248 249 262 0
250 -251 263 0
-250 -251 -263 0
250 251 -263 0
-250 251 263 0
252 -253 264 0
-252 -253 -264 0
252 253 -264 0
-252 253 264 0
254 -255 265 0
-254 -255 -265 0
254 255 -265 0
-254 255 265 0
256 -257 266 0
-256 -257 -266 0
256 257 -266 0
-256 257 266 0
258 -259 267 0
-258 -259 -267 0
258 259 -267 0
-258 259 267 0
260 -261 268 0
-260 -261 -268 0
260 261 -268 0
-260 261 268 0
262 -263 269 0
-262 -263 -269 0
262 263 -269 0
-262 263 269 0
264 -265 270 0
-264 -265 -270 0
264 265 -270 0
-264 265 270 0
266 -267 271 0
-266 -267 -271 0
266 267 -271 0
-266 267 271 0
268 -269 272 0
-268 -269 -272 0
268 269 -272 0
-268 269 272 0
270 -271 273 0
-270 -271 -273 0
270 271 -273 0
-270 271 273 0
272 273 0
-272 -273 0
